27 46
5 26
8 13
18 33
18 4
16 39
9 49
5 24
22 14
14 22
22 47
5 37
21 24
22 19
26 3
24 32
18 50
28 27
30 36
28 25
7 41
27 2
26 12
20 21
25 6
5 11
27 7
7 9
24 26
15 11
9 35
10 2
9 39
16 21
30 25
21 32
14 12
20 41
13 34
25 13
20 35
7 46
20 3
29 4
29 36
21 37
12 20
18 23
15 21
23 2
